p cnf 235 1085
75 132 142 0
115 120 129 170 0
175 178 184 0
144 147 149 154 167 181 0
94 160 161 162 0
117 126 134 157 0
111 166 0
151 202 234 0
86 206 0
80 101 105 125 0
97 216 0
92 102 103 0
107 113 118 0
88 153 0
82 84 85 90 0
81 138 0
78 124 130 164 0
73 74 76 109 225 0
108 119 168 169 171 174 0
137 176 179 180 182 183 0
159 186 0
93 163 187 188 0
190 192 196 197 0
198 201 232 0
204 205 207 0
83 140 208 210 0
110 143 211 212 0
123 133 213 0
173 214 0
114 177 0
96 146 155 217 0
104 193 219 221 0
136 222 224 0
77 165 0
141 226 0
98 148 185 0
200 229 231 0
150 203 233 235 0
72 139 209 0
79 100 0
68 70 122 0
66 67 172 0
64 65 0
61 62 95 215 0
60 135 0
-202 -228 0
-86 -228 0
-101 -228 0
-121 -228 0
-86 -202 0
-101 -202 0
-121 -202 0
-86 -101 0
-86 -121 0
-101 -121 0
-109 -130 0
-58 -130 0
-130 -176 0
-130 -163 0
-58 -109 0
-109 -176 0
-109 -163 0
-58 -176 0
-58 -163 0
-163 -176 0
-56 -57 0
-57 -198 0
-57 -83 0
-57 -211 0
-56 -198 0
-56 -83 0
-56 -211 0
-83 -198 0
-198 -211 0
-83 -211 0
-54 -55 0
-55 -165 0
-53 -55 0
-55 -185 0
-54 -165 0
-53 -54 0
-54 -185 0
-53 -165 0
-165 -185 0
-53 -185 0
-50 -51 0
-51 -116 0
-51 -233 0
-51 -139 0
-50 -116 0
-50 -233 0
-50 -139 0
-116 -233 0
-116 -139 0
-139 -233 0
-130 -228 0
-57 -228 0
-55 -228 0
-51 -228 0
-57 -130 0
-55 -130 0
-51 -130 0
-55 -57 0
-51 -57 0
-51 -55 0
-109 -202 0
-56 -202 0
-54 -202 0
-50 -202 0
-56 -109 0
-54 -109 0
-50 -109 0
-54 -56 0
-50 -56 0
-50 -54 0
-58 -86 0
-86 -198 0
-86 -165 0
-86 -116 0
-58 -198 0
-58 -165 0
-58 -116 0
-165 -198 0
-116 -198 0
-116 -165 0
-101 -176 0
-83 -101 0
-53 -101 0
-101 -233 0
-83 -176 0
-53 -176 0
-176 -233 0
-53 -83 0
-83 -233 0
-53 -233 0
-121 -163 0
-121 -211 0
-121 -185 0
-121 -139 0
-163 -211 0
-163 -185 0
-139 -163 0
-185 -211 0
-139 -211 0
-139 -185 0
-48 -142 0
-48 -129 0
-48 -147 0
-48 -160 0
-48 -195 0
-48 -157 0
-129 -142 0
-142 -147 0
-142 -160 0
-142 -195 0
-142 -157 0
-129 -147 0
-129 -160 0
-129 -195 0
-129 -157 0
-147 -160 0
-147 -195 0
-147 -157 0
-160 -195 0
-157 -160 0
-157 -195 0
-166 -199 0
-166 -234 0
-71 -166 0
-80 -166 0
-47 -166 0
-46 -166 0
-199 -234 0
-71 -199 0
-80 -199 0
-47 -199 0
-46 -199 0
-71 -234 0
-80 -234 0
-47 -234 0
-46 -234 0
-71 -80 0
-47 -71 0
-46 -71 0
-47 -80 0
-46 -80 0
-46 -47 0
-45 -97 0
-45 -92 0
-44 -45 0
-45 -107 0
-43 -45 0
-45 -85 0
-92 -97 0
-44 -97 0
-97 -107 0
-43 -97 0
-85 -97 0
-44 -92 0
-92 -107 0
-43 -92 0
-85 -92 0
-44 -107 0
-43 -44 0
-44 -85 0
-43 -107 0
-85 -107 0
-43 -85 0
-40 -41 0
-39 -41 0
-41 -204 0
-41 -208 0
-41 -110 0
-41 -133 0
-39 -40 0
-40 -204 0
-40 -208 0
-40 -110 0
-40 -133 0
-39 -204 0
-39 -208 0
-39 -110 0
-39 -133 0
-204 -208 0
-110 -204 0
-133 -204 0
-110 -208 0
-133 -208 0
-110 -133 0
-177 -214 0
-146 -214 0
-104 -214 0
-214 -222 0
-112 -214 0
-152 -214 0
-146 -177 0
-104 -177 0
-177 -222 0
-112 -177 0
-152 -177 0
-104 -146 0
-146 -222 0
-112 -146 0
-146 -152 0
-104 -222 0
-104 -112 0
-104 -152 0
-112 -222 0
-152 -222 0
-112 -152 0
-38 -191 0
-37 -38 0
-38 -229 0
-38 -203 0
-38 -209 0
-38 -100 0
-37 -191 0
-191 -229 0
-191 -203 0
-191 -209 0
-100 -191 0
-37 -229 0
-37 -203 0
-37 -209 0
-37 -100 0
-203 -229 0
-209 -229 0
-100 -229 0
-203 -209 0
-100 -203 0
-100 -209 0
-35 -122 0
-35 -172 0
-35 -95 0
-34 -35 0
-35 -135 0
-33 -35 0
-122 -172 0
-95 -122 0
-34 -122 0
-122 -135 0
-33 -122 0
-95 -172 0
-34 -172 0
-135 -172 0
-33 -172 0
-34 -95 0
-95 -135 0
-33 -95 0
-34 -135 0
-33 -34 0
-33 -135 0
-48 -166 0
-45 -48 0
-41 -48 0
-48 -214 0
-38 -48 0
-35 -48 0
-45 -166 0
-41 -166 0
-166 -214 0
-38 -166 0
-35 -166 0
-41 -45 0
-45 -214 0
-38 -45 0
-35 -45 0
-41 -214 0
-38 -41 0
-35 -41 0
-38 -214 0
-35 -214 0
-35 -38 0
-142 -199 0
-97 -142 0
-40 -142 0
-142 -177 0
-142 -191 0
-122 -142 0
-97 -199 0
-40 -199 0
-177 -199 0
-191 -199 0
-122 -199 0
-40 -97 0
-97 -177 0
-97 -191 0
-97 -122 0
-40 -177 0
-40 -191 0
-40 -122 0
-177 -191 0
-122 -177 0
-122 -191 0
-129 -234 0
-92 -129 0
-39 -129 0
-129 -146 0
-37 -129 0
-129 -172 0
-92 -234 0
-39 -234 0
-146 -234 0
-37 -234 0
-172 -234 0
-39 -92 0
-92 -146 0
-37 -92 0
-92 -172 0
-39 -146 0
-37 -39 0
-39 -172 0
-37 -146 0
-146 -172 0
-37 -172 0
-71 -147 0
-44 -147 0
-147 -204 0
-104 -147 0
-147 -229 0
-95 -147 0
-44 -71 0
-71 -204 0
-71 -104 0
-71 -229 0
-71 -95 0
-44 -204 0
-44 -104 0
-44 -229 0
-44 -95 0
-104 -204 0
-204 -229 0
-95 -204 0
-104 -229 0
-95 -104 0
-95 -229 0
-80 -160 0
-107 -160 0
-160 -208 0
-160 -222 0
-160 -203 0
-34 -160 0
-80 -107 0
-80 -208 0
-80 -222 0
-80 -203 0
-34 -80 0
-107 -208 0
-107 -222 0
-107 -203 0
-34 -107 0
-208 -222 0
-203 -208 0
-34 -208 0
-203 -222 0
-34 -222 0
-34 -203 0
-47 -195 0
-43 -195 0
-110 -195 0
-112 -195 0
-195 -209 0
-135 -195 0
-43 -47 0
-47 -110 0
-47 -112 0
-47 -209 0
-47 -135 0
-43 -110 0
-43 -112 0
-43 -209 0
-43 -135 0
-110 -112 0
-110 -209 0
-110 -135 0
-112 -209 0
-112 -135 0
-135 -209 0
-46 -157 0
-85 -157 0
-133 -157 0
-152 -157 0
-100 -157 0
-33 -157 0
-46 -85 0
-46 -133 0
-46 -152 0
-46 -100 0
-33 -46 0
-85 -133 0
-85 -152 0
-85 -100 0
-33 -85 0
-133 -152 0
-100 -133 0
-33 -133 0
-100 -152 0
-33 -152 0
-33 -100 0
-75 -120 0
-75 -181 0
-75 -94 0
-31 -75 0
-75 -134 0
-120 -181 0
-94 -120 0
-31 -120 0
-120 -134 0
-94 -181 0
-31 -181 0
-134 -181 0
-31 -94 0
-94 -134 0
-31 -134 0
-151 -230 0
-29 -230 0
-125 -230 0
-69 -230 0
-28 -230 0
-29 -151 0
-125 -151 0
-69 -151 0
-28 -151 0
-29 -125 0
-29 -69 0
-28 -29 0
-69 -125 0
-28 -125 0
-28 -69 0
-76 -78 0
-78 -168 0
-78 -179 0
-78 -93 0
-78 -190 0
-76 -168 0
-76 -179 0
-76 -93 0
-76 -190 0
-168 -179 0
-93 -168 0
-168 -190 0
-93 -179 0
-179 -190 0
-93 -190 0
-114 -155 0
-114 -219 0
-114 -224 0
-27 -114 0
-87 -114 0
-155 -219 0
-155 -224 0
-27 -155 0
-87 -155 0
-219 -224 0
-27 -219 0
-87 -219 0
-27 -224 0
-87 -224 0
-27 -87 0
-26 -89 0
-89 -141 0
-89 -128 0
-89 -148 0
-89 -158 0
-26 -141 0
-26 -128 0
-26 -148 0
-26 -158 0
-128 -141 0
-141 -148 0
-141 -158 0
-128 -148 0
-128 -158 0
-148 -158 0
-156 -194 0
-194 -200 0
-194 -235 0
-72 -194 0
-79 -194 0
-156 -200 0
-156 -235 0
-72 -156 0
-79 -156 0
-200 -235 0
-72 -200 0
-79 -200 0
-72 -235 0
-79 -235 0
-72 -79 0
-75 -230 0
-75 -78 0
-75 -114 0
-75 -89 0
-75 -194 0
-78 -230 0
-114 -230 0
-89 -230 0
-194 -230 0
-78 -114 0
-78 -89 0
-78 -194 0
-89 -114 0
-114 -194 0
-89 -194 0
-120 -151 0
-76 -120 0
-120 -155 0
-26 -120 0
-120 -156 0
-76 -151 0
-151 -155 0
-26 -151 0
-151 -156 0
-76 -155 0
-26 -76 0
-76 -156 0
-26 -155 0
-155 -156 0
-26 -156 0
-29 -181 0
-168 -181 0
-181 -219 0
-141 -181 0
-181 -200 0
-29 -168 0
-29 -219 0
-29 -141 0
-29 -200 0
-168 -219 0
-141 -168 0
-168 -200 0
-141 -219 0
-200 -219 0
-141 -200 0
-94 -125 0
-94 -179 0
-94 -224 0
-94 -128 0
-94 -235 0
-125 -179 0
-125 -224 0
-125 -128 0
-125 -235 0
-179 -224 0
-128 -179 0
-179 -235 0
-128 -224 0
-224 -235 0
-128 -235 0
-31 -69 0
-31 -93 0
-27 -31 0
-31 -148 0
-31 -72 0
-69 -93 0
-27 -69 0
-69 -148 0
-69 -72 0
-27 -93 0
-93 -148 0
-72 -93 0
-27 -148 0
-27 -72 0
-72 -148 0
-28 -134 0
-134 -190 0
-87 -134 0
-134 -158 0
-79 -134 0
-28 -190 0
-28 -87 0
-28 -158 0
-28 -79 0
-87 -190 0
-158 -190 0
-79 -190 0
-87 -158 0
-79 -87 0
-79 -158 0
-25 -111 0
-111 -206 0
-23 -111 0
-105 -111 0
-25 -206 0
-23 -25 0
-25 -105 0
-23 -206 0
-105 -206 0
-23 -105 0
-63 -216 0
-63 -220 0
-59 -63 0
-63 -118 0
-216 -220 0
-59 -216 0
-118 -216 0
-59 -220 0
-118 -220 0
-59 -118 0
-124 -138 0
-131 -138 0
-138 -169 0
-137 -138 0
-124 -131 0
-124 -169 0
-124 -137 0
-131 -169 0
-131 -137 0
-137 -169 0
-22 -30 0
-21 -22 0
-22 -231 0
-22 -150 0
-21 -30 0
-30 -231 0
-30 -150 0
-21 -231 0
-21 -150 0
-150 -231 0
-20 -70 0
-20 -65 0
-20 -62 0
-19 -20 0
-65 -70 0
-62 -70 0
-19 -70 0
-62 -65 0
-19 -65 0
-19 -62 0
-63 -111 0
-111 -138 0
-22 -111 0
-20 -111 0
-63 -138 0
-22 -63 0
-20 -63 0
-22 -138 0
-20 -138 0
-20 -22 0
-25 -216 0
-25 -124 0
-25 -30 0
-25 -70 0
-124 -216 0
-30 -216 0
-70 -216 0
-30 -124 0
-70 -124 0
-30 -70 0
-206 -220 0
-131 -206 0
-21 -206 0
-65 -206 0
-131 -220 0
-21 -220 0
-65 -220 0
-21 -131 0
-65 -131 0
-21 -65 0
-23 -59 0
-23 -169 0
-23 -231 0
-23 -62 0
-59 -169 0
-59 -231 0
-59 -62 0
-169 -231 0
-62 -169 0
-62 -231 0
-105 -118 0
-105 -137 0
-105 -150 0
-19 -105 0
-118 -137 0
-118 -150 0
-19 -118 0
-137 -150 0
-19 -137 0
-19 -150 0
-115 -175 0
-115 -167 0
-115 -162 0
-18 -115 0
-167 -175 0
-162 -175 0
-18 -175 0
-162 -167 0
-18 -167 0
-18 -162 0
-52 -74 0
-74 -171 0
-74 -183 0
-74 -187 0
-52 -171 0
-52 -183 0
-52 -187 0
-171 -183 0
-171 -187 0
-183 -187 0
-17 -232 0
-17 -205 0
-17 -140 0
-17 -143 0
-205 -232 0
-140 -232 0
-143 -232 0
-140 -205 0
-143 -205 0
-140 -143 0
-16 -77 0
-16 -226 0
-15 -16 0
-16 -98 0
-77 -226 0
-15 -77 0
-77 -98 0
-15 -226 0
-98 -226 0
-15 -98 0
-64 -67 0
-67 -215 0
-13 -67 0
-60 -67 0
-64 -215 0
-13 -64 0
-60 -64 0
-13 -215 0
-60 -215 0
-13 -60 0
-74 -115 0
-17 -115 0
-16 -115 0
-67 -115 0
-17 -74 0
-16 -74 0
-67 -74 0
-16 -17 0
-17 -67 0
-16 -67 0
-52 -175 0
-175 -232 0
-77 -175 0
-64 -175 0
-52 -232 0
-52 -77 0
-52 -64 0
-77 -232 0
-64 -232 0
-64 -77 0
-167 -171 0
-167 -205 0
-167 -226 0
-167 -215 0
-171 -205 0
-171 -226 0
-171 -215 0
-205 -226 0
-205 -215 0
-215 -226 0
-162 -183 0
-140 -162 0
-15 -162 0
-13 -162 0
-140 -183 0
-15 -183 0
-13 -183 0
-15 -140 0
-13 -140 0
-13 -15 0
-18 -187 0
-18 -143 0
-18 -98 0
-18 -60 0
-143 -187 0
-98 -187 0
-60 -187 0
-98 -143 0
-60 -143 0
-60 -98 0
-103 -145 0
-113 -145 0
-145 -153 0
-84 -145 0
-103 -113 0
-103 -153 0
-84 -103 0
-113 -153 0
-84 -113 0
-84 -153 0
-73 -81 0
-81 -180 0
-81 -186 0
-81 -192 0
-73 -180 0
-73 -186 0
-73 -192 0
-180 -186 0
-180 -192 0
-186 -192 0
-36 -227 0
-36 -210 0
-36 -99 0
-36 -123 0
-210 -227 0
-99 -227 0
-123 -227 0
-99 -210 0
-123 -210 0
-99 -123 0
-96 -173 0
-136 -173 0
-32 -173 0
-11 -173 0
-96 -136 0
-32 -96 0
-11 -96 0
-32 -136 0
-11 -136 0
-11 -32 0
-10 -66 0
-9 -10 0
-8 -10 0
-7 -10 0
-9 -66 0
-8 -66 0
-7 -66 0
-8 -9 0
-7 -9 0
-7 -8 0
-81 -145 0
-36 -145 0
-145 -173 0
-10 -145 0
-36 -81 0
-81 -173 0
-10 -81 0
-36 -173 0
-10 -36 0
-10 -173 0
-73 -103 0
-103 -227 0
-96 -103 0
-66 -103 0
-73 -227 0
-73 -96 0
-66 -73 0
-96 -227 0
-66 -227 0
-66 -96 0
-113 -180 0
-113 -210 0
-113 -136 0
-9 -113 0
-180 -210 0
-136 -180 0
-9 -180 0
-136 -210 0
-9 -210 0
-9 -136 0
-153 -186 0
-99 -153 0
-32 -153 0
-8 -153 0
-99 -186 0
-32 -186 0
-8 -186 0
-32 -99 0
-8 -99 0
-8 -32 0
-84 -192 0
-84 -123 0
-11 -84 0
-7 -84 0
-123 -192 0
-11 -192 0
-7 -192 0
-11 -123 0
-7 -123 0
-7 -11 0
-149 -178 0
-178 -189 0
-126 -178 0
-149 -189 0
-126 -149 0
-126 -189 0
-6 -223 0
-88 -223 0
-90 -223 0
-6 -88 0
-6 -90 0
-88 -90 0
-108 -127 0
-127 -159 0
-127 -196 0
-108 -159 0
-108 -196 0
-159 -196 0
-91 -193 0
-91 -106 0
-42 -91 0
-106 -193 0
-42 -193 0
-42 -106 0
-178 -223 0
-127 -178 0
-91 -178 0
-127 -223 0
-91 -223 0
-91 -127 0
-6 -149 0
-108 -149 0
-149 -193 0
-6 -108 0
-6 -193 0
-108 -193 0
-88 -189 0
-159 -189 0
-106 -189 0
-88 -159 0
-88 -106 0
-106 -159 0
-90 -126 0
-126 -196 0
-42 -126 0
-90 -196 0
-42 -90 0
-42 -196 0
-132 -144 0
-132 -161 0
-144 -161 0
-164 -174 0
-164 -182 0
-174 -182 0
-61 -68 0
-68 -218 0
-61 -218 0
-132 -164 0
-68 -132 0
-68 -164 0
-144 -174 0
-61 -144 0
-61 -174 0
-161 -182 0
-161 -218 0
-182 -218 0
-170 -184 0
-154 -170 0
-49 -170 0
-117 -170 0
-154 -184 0
-49 -184 0
-117 -184 0
-49 -154 0
-117 -154 0
-49 -117 0
-5 -102 0
-4 -102 0
-3 -102 0
-82 -102 0
-4 -5 0
-3 -5 0
-5 -82 0
-3 -4 0
-4 -82 0
-3 -82 0
-14 -225 0
-119 -225 0
-188 -225 0
-197 -225 0
-14 -119 0
-14 -188 0
-14 -197 0
-119 -188 0
-119 -197 0
-188 -197 0
-24 -201 0
-24 -207 0
-24 -212 0
-24 -213 0
-201 -207 0
-201 -212 0
-201 -213 0
-207 -212 0
-207 -213 0
-212 -213 0
-12 -217 0
-217 -221 0
-2 -217 0
-1 -217 0
-12 -221 0
-2 -12 0
-1 -12 0
-2 -221 0
-1 -221 0
-1 -2 0
-102 -170 0
-170 -225 0
-24 -170 0
-170 -217 0
-102 -225 0
-24 -102 0
-102 -217 0
-24 -225 0
-217 -225 0
-24 -217 0
-5 -184 0
-14 -184 0
-184 -201 0
-12 -184 0
-5 -14 0
-5 -201 0
-5 -12 0
-14 -201 0
-12 -14 0
-12 -201 0
-4 -154 0
-119 -154 0
-154 -207 0
-154 -221 0
-4 -119 0
-4 -207 0
-4 -221 0
-119 -207 0
-119 -221 0
-207 -221 0
-3 -49 0
-49 -188 0
-49 -212 0
-2 -49 0
-3 -188 0
-3 -212 0
-2 -3 0
-188 -212 0
-2 -188 0
-2 -212 0
-82 -117 0
-117 -197 0
-117 -213 0
-1 -117 0
-82 -197 0
-82 -213 0
-1 -82 0
-197 -213 0
-1 -197 0
-1 -213 0
